c Random generated cnf formula, satisfiable: true
p cnf 10 50
4 2 -3 0
4 -8 -1 0
-9 5 8 0
7 9 -1 0
-3 -1 8 0
9 -3 4 0
3 -10 -6 0
-2 -8 4 0
-10 -8 7 0
10 3 -6 0
-9 7 -4 0
-10 -5 -7 0
-6 -2 -5 0
10 5 8 0
-3 7 1 0
1 5 -10 0
8 -1 -9 0
-2 8 -5 0
4 5 -7 0
4 10 7 0
-1 -10 2 0
10 1 -6 0
1 6 10 0
4 -7 2 0
10 -1 -9 0
10 7 -5 0
-9 4 -7 0
-6 -1 4 0
4 7 -10 0
2 -4 5 0
7 -6 -5 0
8 1 -7 0
-9 10 -1 0
5 8 1 0
-9 10 -4 0
-10 -2 -3 0
6 3 -9 0
7 5 -2 0
-7 1 5 0
9 1 4 0
-1 -4 -10 0
-8 1 -4 0
-6 7 3 0
-3 8 -2 0
-6 9 10 0
-7 -3 -9 0
1 -2 -6 0
-2 -9 10 0
-9 -6 -10 0
2 -5 -3 0
